NAME : XML100_3142_02
DIMENSION : 101
NB_CLUSTERS : 27
CLUSTERING_ALG : DBSCAN
CLUSTERING_PARAMS : eps(52), minSamples(3)
CLUSTERS
1 0
2 3 14 23 36 57 58 79
3 5 25 48 90
4 7 24 28 82
5 8 9 67 71
6 1 10 87 96 97
7 16 37 84
8 31 40 44 94
9 34 62 89
10 35 43 51 60 64 81 83 88
11 12 27 47 49 66 68
12 50 55 73 80 100
13 20 22 39 54
14 18 52 65 69 75
15 2 17 19 30 61 95
16 41 78
17 56 91
18 29 93
19 26 32 72
20 77 98
21 13 33
22 6 45
23 15 21 59 74 76
24 4 70 99
25 38 46 63 85
26 11 42 86
27 53 92
EOF